77
[[-1, 26730, 0, 0, 22859, 27693, 0, 19256, 0, 38784, 0, 0, 0, 0, 0, 0, 0, 0, 43801, 0, 30173, 0, 30789, 37587, 34073, 0, 0, 0, 0, 0, 33820, 18348, 0, 40479, 34096, 35507, 0, 0, 0, 0, 0, 43937, 0, 0, 0, 0, 22284, 0, 0, 0, 0, 0, 0, 0, 0, 0, 0, 0, 45050, 0, 0, 0, 28642, 0, 0, 0, 0, 0, 0, 0, 0, 0, 14613, 0, 0, 32332, 0],[26730, -1, 0, 0, 0, 0, 0, 0, 18006, 36154, 0, 0, 44363, 0, 32773, 31169, 0, 0, 0, 0, 0, 39545, 0, 0, 43867, 37716, 0, 0, 0, 42945, 0, 0, 0, 16923, 0, 0, 0, 0, 0, 42773, 0, 30156, 0, 0, 0, 0, 38639, 11279, 39806, 0, 0, 0, 29040, 0, 0, 0, 0, 21848, 0, 0, 0, 36355, 0, 0, 0, 0, 0, 0, 36201, 0, 0, 0, 0, 0, 18394, 0, 0],[0, 0, -1, 35607, 0, 24095, 0, 0, 0, 28064, 0, 0, 27571, 26630, 0, 0, 0, 0, 0, 0, 0, 0, 0, 0, 0, 27340, 34261, 40325, 0, 0, 0, 39943, 0, 45019, 0, 25226, 0, 0, 0, 19680, 0, 0, 0, 0, 0, 0, 0, 0, 45020, 0, 41965, 17171, 45731, 0, 0, 0, 0, 0, 0, 0, 0, 0, 0, 0, 0, 0, 27049, 0, 0, 0, 0, 29666, 0, 0, 0, 0, 37473],[0, 0, 35607, -1, 0, 0, 17727, 0, 0, 0, 14558, 0, 0, 0, 0, 0, 0, 0, 0, 0, 0, 0, 0, 0, 0, 36583, 0, 0, 42311, 0, 0, 0, 0, 0, 40199, 0, 0, 0, 0, 0, 0, 0, 34428, 39929, 0, 0, 0, 45345, 0, 0, 0, 36603, 0, 0, 34547, 0, 0, 0, 25568, 0, 0, 0, 36667, 0, 0, 46181, 0, 0, 0, 0, 36603, 0, 0, 0, 0, 0, 0],[22859, 0, 0, 0, -1, 45631, 42364, 38936, 0, 25112, 14207, 23465, 0, 0, 0, 0, 0, 38513, 42986, 0, 0, 0, 33019, 0, 21391, 0, 36437, 0, 0, 0, 0, 0, 0, 0, 0, 0, 0, 0, 0, 0, 0, 36524, 0, 19785, 0, 0, 0, 0, 0, 0, 0, 30346, 44434, 0, 22437, 0, 0, 0, 0, 35663, 39333, 0, 0, 0, 0, 0, 0, 0, 0, 0, 0, 0, 0, 0, 0, 0, 38389],[27693, 0, 24095, 0, 45631, -1, 0, 0, 35825, 0, 0, 0, 0, 0, 32045, 9672, 0, 0, 0, 0, 0, 0, 0, 0, 0, 0, 32079, 30414, 0, 0, 0, 0, 0, 39857, 0, 0, 0, 0, 0, 0, 0, 0, 0, 0, 0, 42013, 0, 0, 0, 0, 0, 0, 0, 0, 0, 0, 0, 0, 0, 0, 0, 0, 0, 0, 0, 0, 23065, 0, 31620, 0, 39734, 32699, 41164, 0, 42169, 0, 0],[0, 0, 0, 17727, 42364, 0, -1, 16322, 0, 0, 0, 0, 21725, 0, 0, 0, 0, 0, 0, 0, 0, 42255, 0, 0, 28947, 0, 0, 0, 24124, 0, 0, 0, 38701, 0, 0, 0, 0, 0, 36775, 43919, 0, 0, 15996, 0, 45570, 0, 0, 0, 0, 43740, 12266, 0, 0, 0, 0, 0, 0, 0, 20259, 0, 15925, 0, 25045, 0, 0, 35815, 0, 29490, 0, 0, 0, 0, 0, 0, 0, 0, 0],[19256, 0, 0, 0, 38936, 0, 16322, -1, 0, 0, 0, 0, 0, 40219, 0, 0, 0, 26250, 0, 0, 0, 0, 0, 0, 37938, 9460, 0, 0, 0, 0, 0, 0, 0, 22999, 0, 0, 0, 0, 0, 0, 0, 0, 0, 0, 0, 39396, 0, 0, 21931, 0, 0, 0, 0, 0, 39262, 0, 20919, 0, 0, 0, 0, 0, 0, 0, 0, 32021, 0, 0, 0, 0, 43585, 0, 0, 34456, 0, 30142, 36068],[0, 18006, 0, 0, 0, 35825, 0, 0, -1, 9944, 38097, 0, 0, 34346, 0, 35440, 33737, 0, 0, 0, 35764, 0, 0, 0, 0, 35997, 0, 0, 0, 0, 16613, 0, 0, 0, 0, 0, 0, 0, 18855, 0, 43569, 0, 0, 0, 14617, 0, 16508, 0, 0, 39426, 0, 0, 0, 0, 0, 0, 0, 0, 0, 0, 0, 0, 0, 0, 35630, 0, 44910, 0, 0, 0, 0, 0, 16792, 0, 0, 0, 0],[38784, 36154, 28064, 0, 25112, 0, 0, 0, 9944, -1, 18954, 0, 0, 0, 0, 0, 0, 0, 44874, 41738, 0, 0, 0, 0, 0, 0, 43374, 0, 46209, 0, 0, 0, 0, 0, 0, 35509, 0, 40895, 0, 0, 0, 21229, 0, 44366, 0, 30119, 0, 0, 0, 0, 0, 0, 0, 0, 0, 36012, 30413, 0, 33335, 0, 0, 0, 27424, 0, 0, 0, 0, 0, 0, 0, 0, 37959, 0, 30617, 0, 23624, 0],[0, 0, 0, 14558, 14207, 0, 0, 0, 38097, 18954, -1, 20717, 0, 0, 0, 45923, 0, 46060, 0, 0, 0, 0, 0, 0, 0, 0, 0, 0, 0, 0, 0, 0, 0, 0, 0, 0, 0, 0, 0, 0, 0, 0, 18115, 0, 0, 0, 0, 0, 33470, 23328, 0, 33315, 34437, 0, 0, 0, 0, 0, 0, 38419, 44252, 0, 0, 0, 36012, 0, 0, 0, 0, 0, 0, 35503, 0, 0, 0, 0, 0],[0, 0, 0, 0, 23465, 0, 0, 0, 0, 0, 20717, -1, 41597, 0, 0, 0, 0, 0, 0, 0, 0, 0, 30951, 0, 28671, 0, 41566, 0, 0, 0, 0, 19964, 36625, 0, 0, 0, 0, 0, 25350, 0, 0, 0, 0, 27513, 0, 3981, 0, 0, 40997, 0, 0, 31684, 0, 0, 0, 0, 0, 0, 0, 0, 0, 0, 45789, 0, 0, 0, 0, 43126, 0, 0, 38384, 0, 0, 0, 0, 29206, 0],[0, 44363, 27571, 0, 0, 0, 21725, 0, 0, 0, 0, 41597, -1, 40408, 0, 15327, 0, 0, 0, 0, 0, 44438, 0, 22778, 0, 0, 16496, 0, 0, 0, 35958, 0, 0, 25544, 0, 0, 0, 0, 46241, 0, 39274, 0, 0, 0, 0, 0, 0, 0, 0, 27168, 0, 0, 0, 0, 0, 29339, 0, 26518, 0, 45856, 36345, 0, 23300, 0, 43202, 0, 4154, 0, 0, 0, 34501, 0, 0, 0, 0, 10248, 0],[0, 0, 26630, 0, 0, 0, 0, 40219, 34346, 0, 0, 0, 40408, -1, 0, 0, 0, 0, 0, 0, 0, 0, 0, 31049, 0, 0, 0, 0, 0, 0, 0, 0, 0, 0, 0, 0, 41357, 0, 0, 0, 0, 0, 0, 0, 15052, 0, 0, 0, 0, 0, 0, 0, 0, 0, 0, 0, 0, 30225, 34458, 0, 39179, 0, 0, 0, 0, 0, 0, 0, 30648, 25505, 0, 0, 0, 0, 0, 0, 0],[0, 32773, 0, 0, 0, 32045, 0, 0, 0, 0, 0, 0, 0, 0, -1, 0, 0, 0, 0, 0, 0, 33024, 0, 0, 0, 0, 0, 0, 0, 0, 3780, 45708, 0, 0, 21881, 0, 0, 0, 0, 0, 0, 0, 0, 0, 0, 0, 43842, 0, 0, 0, 35626, 0, 0, 0, 0, 27382, 0, 0, 26991, 42982, 8302, 0, 0, 0, 0, 0, 0, 0, 42737, 0, 0, 44604, 0, 0, 0, 0, 0],[0, 31169, 0, 0, 0, 9672, 0, 0, 35440, 0, 45923, 0, 15327, 0, 0, -1, 35997, 0, 29614, 10807, 37924, 0, 0, 0, 0, 0, 0, 0, 0, 0, 30007, 0, 23292, 0, 25953, 0, 0, 0, 0, 43994, 0, 0, 43862, 22684, 0, 0, 0, 0, 0, 0, 0, 37422, 0, 26970, 0, 0, 44603, 0, 0, 0, 0, 0, 15633, 0, 22246, 23998, 0, 0, 0, 0, 0, 0, 39977, 0, 0, 0, 0],[0, 0, 0, 0, 0, 0, 0, 0, 33737, 0, 0, 0, 0, 0, 0, 35997, -1, 0, 0, 0, 0, 0, 0, 0, 15990, 0, 0, 27555, 37582, 0, 0, 0, 0, 0, 27469, 0, 0, 0, 26148, 0, 0, 0, 0, 0, 0, 34067, 0, 0, 0, 0, 0, 0, 0, 0, 14340, 43886, 38088, 6128, 0, 37288, 0, 34290, 0, 0, 0, 0, 8951, 0, 0, 0, 30897, 0, 0, 0, 0, 14547, 0],[0, 0, 0, 0, 38513, 0, 0, 26250, 0, 0, 46060, 0, 0, 0, 0, 0, 0, -1, 0, 0, 0, 0, 0, 0, 0, 0, 0, 16081, 43052, 13432, 0, 36725, 0, 0, 0, 40174, 0, 9531, 0, 0, 0, 0, 0, 0, 0, 42112, 0, 0, 0, 0, 31448, 0, 0, 0, 0, 0, 0, 0, 0, 0, 0, 0, 0, 0, 0, 9576, 0, 21469, 32929, 39395, 0, 0, 0, 0, 0, 0, 0],[43801, 0, 0, 0, 42986, 0, 0, 0, 0, 44874, 0, 0, 0, 0, 0, 29614, 0, 0, -1, 0, 27581, 0, 0, 0, 0, 8825, 0, 44122, 0, 0, 45615, 34527, 39285, 19590, 6065, 0, 0, 0, 0, 44559, 0, 34937, 0, 3040, 0, 22262, 36890, 0, 0, 35543, 0, 32886, 0, 0, 18622, 0, 0, 0, 0, 0, 0, 0, 0, 0, 0, 0, 0, 0, 0, 0, 0, 0, 0, 38113, 0, 0, 41965],[0, 0, 0, 0, 0, 0, 0, 0, 0, 41738, 0, 0, 0, 0, 0, 10807, 0, 0, 0, -1, 0, 0, 0, 0, 0, 44595, 0, 0, 40936, 0, 32568, 0, 0, 0, 0, 42761, 0, 20338, 0, 0, 0, 37321, 37074, 0, 0, 0, 41260, 0, 0, 0, 23587, 42169, 0, 0, 0, 0, 0, 0, 0, 0, 0, 39222, 0, 0, 0, 34227, 0, 46011, 0, 23436, 37531, 0, 0, 0, 0, 0, 0],[30173, 0, 0, 0, 0, 0, 0, 0, 35764, 0, 0, 0, 0, 0, 0, 37924, 0, 0, 27581, 0, -1, 0, 0, 38154, 30111, 0, 44842, 33051, 0, 0, 0, 26070, 38116, 0, 0, 10029, 0, 44924, 0, 0, 31126, 0, 0, 0, 0, 0, 41375, 30221, 0, 0, 0, 0, 0, 0, 43419, 0, 0, 0, 0, 0, 0, 0, 0, 38046, 0, 26826, 0, 0, 0, 0, 20045, 27600, 0, 0, 11271, 0, 0],[0, 39545, 0, 0, 0, 0, 42255, 0, 0, 0, 0, 0, 44438, 0, 33024, 0, 0, 0, 0, 0, 0, -1, 0, 0, 28297, 0, 0, 0, 21170, 0, 0, 0, 0, 0, 0, 45836, 0, 24247, 0, 0, 0, 0, 0, 0, 0, 6198, 0, 24341, 0, 37312, 0, 42245, 29852, 0, 0, 0, 45533, 0, 0, 30150, 0, 43888, 32979, 0, 0, 0, 0, 0, 0, 0, 0, 29516, 0, 0, 0, 0, 0],[30789, 0, 0, 0, 33019, 0, 0, 0, 0, 0, 0, 30951, 0, 0, 0, 0, 0, 0, 0, 0, 0, 0, -1, 0, 17285, 39817, 37212, 0, 0, 0, 0, 0, 41049, 0, 0, 43089, 24065, 0, 0, 0, 0, 0, 40762, 0, 0, 0, 0, 0, 0, 0, 0, 0, 0, 0, 0, 0, 0, 0, 36540, 0, 25548, 16140, 46197, 0, 37700, 0, 18289, 0, 35923, 0, 0, 0, 0, 23665, 0, 0, 0],[37587, 0, 0, 0, 0, 0, 0, 0, 0, 0, 0, 0, 22778, 31049, 0, 0, 0, 0, 0, 0, 38154, 0, 0, -1, 0, 0, 0, 0, 0, 0, 0, 0, 0, 26364, 0, 0, 0, 27190, 0, 37496, 0, 0, 0, 5106, 0, 28044, 43941, 0, 0, 38946, 0, 45154, 0, 0, 25637, 0, 0, 29107, 0, 0, 0, 0, 36694, 35715, 0, 0, 0, 0, 0, 32464, 40088, 35564, 0, 39856, 0, 0, 0],[34073, 43867, 0, 0, 21391, 0, 28947, 37938, 0, 0, 0, 28671, 0, 0, 0, 0, 15990, 0, 0, 0, 30111, 28297, 17285, 0, -1, 0, 29574, 35073, 0, 0, 39867, 0, 0, 0, 0, 32048, 0, 0, 0, 2987, 0, 0, 45682, 0, 0, 0, 0, 37302, 0, 17605, 23301, 28091, 0, 0, 0, 0, 0, 0, 0, 0, 0, 0, 0, 0, 25711, 0, 44323, 40483, 0, 0, 0, 0, 10693, 0, 0, 0, 31248],[0, 37716, 27340, 36583, 0, 0, 0, 9460, 35997, 0, 0, 0, 0, 0, 0, 0, 0, 0, 8825, 44595, 0, 0, 39817, 0, 0, -1, 45243, 30331, 0, 27042, 0, 0, 0, 32654, 35520, 0, 28652, 0, 32695, 0, 0, 0, 0, 29250, 0, 0, 0, 0, 0, 0, 0, 44377, 39585, 0, 0, 0, 0, 0, 0, 26446, 31510, 0, 0, 0, 0, 0, 0, 0, 0, 0, 0, 42050, 34094, 0, 0, 0, 23781],[0, 0, 34261, 0, 36437, 32079, 0, 0, 0, 43374, 0, 41566, 16496, 0, 0, 0, 0, 0, 0, 0, 44842, 0, 37212, 0, 29574, 45243, -1, 0, 0, 42714, 0, 0, 45494, 20328, 0, 41252, 44376, 38847, 27200, 0, 0, 0, 0, 0, 0, 0, 30088, 0, 0, 0, 0, 0, 46182, 0, 35431, 0, 0, 0, 0, 0, 0, 0, 0, 0, 0, 0, 0, 0, 0, 0, 0, 38094, 0, 0, 37303, 16156, 0],[0, 0, 40325, 0, 0, 30414, 0, 0, 0, 0, 0, 0, 0, 0, 0, 0, 27555, 16081, 44122, 0, 33051, 0, 0, 0, 35073, 30331, 0, -1, 14529, 25817, 13602, 0, 0, 0, 34084, 0, 0, 45812, 0, 0, 33534, 0, 0, 46142, 30865, 0, 0, 0, 0, 0, 44064, 0, 0, 40012, 0, 0, 0, 0, 39426, 0, 21553, 0, 0, 0, 0, 0, 0, 37195, 0, 0, 0, 45665, 0, 21040, 22838, 17931, 0],[0, 0, 0, 42311, 0, 0, 24124, 0, 0, 46209, 0, 0, 0, 0, 0, 0, 37582, 43052, 0, 40936, 0, 21170, 0, 0, 0, 0, 0, 14529, -1, 0, 0, 0, 14109, 0, 0, 29655, 0, 0, 0, 0, 23251, 0, 0, 0, 0, 0, 0, 0, 0, 0, 0, 0, 0, 0, 0, 0, 0, 0, 0, 38735, 0, 0, 0, 0, 0, 0, 0, 0, 0, 0, 0, 0, 0, 33837, 0, 38770, 38811],[0, 42945, 0, 0, 0, 0, 0, 0, 0, 0, 0, 0, 0, 0, 0, 0, 0, 13432, 0, 0, 0, 0, 0, 0, 0, 27042, 42714, 25817, 0, -1, 0, 28420, 0, 0, 0, 43485, 0, 0, 0, 0, 0, 0, 0, 32448, 0, 0, 18007, 0, 18964, 0, 0, 39376, 0, 0, 0, 0, 0, 0, 42975, 0, 17468, 0, 0, 0, 0, 0, 0, 0, 0, 0, 0, 0, 0, 0, 0, 0, 0],[33820, 0, 0, 0, 0, 0, 0, 0, 16613, 0, 0, 0, 35958, 0, 3780, 30007, 0, 0, 45615, 32568, 0, 0, 0, 0, 39867, 0, 0, 13602, 0, 0, -1, 0, 0, 0, 20775, 0, 0, 0, 0, 0, 32978, 0, 0, 24021, 0, 22495, 5077, 22565, 0, 0, 0, 0, 42530, 0, 0, 40769, 0, 0, 0, 0, 0, 0, 0, 0, 30997, 0, 0, 36397, 0, 44166, 0, 0, 14172, 0, 0, 0, 12112],[18348, 0, 39943, 0, 0, 0, 0, 0, 0, 0, 0, 19964, 0, 0, 45708, 0, 0, 36725, 34527, 0, 26070, 0, 0, 0, 0, 0, 0, 0, 0, 28420, 0, -1, 39214, 0, 0, 12658, 46057, 0, 0, 0, 0, 28639, 0, 0, 0, 0, 26218, 0, 0, 18767, 0, 40853, 0, 0, 0, 0, 0, 0, 0, 30753, 40405, 19885, 0, 36317, 25220, 0, 0, 0, 0, 0, 0, 0, 20650, 0, 0, 0, 0],[0, 0, 0, 0, 0, 0, 38701, 0, 0, 0, 0, 36625, 0, 0, 0, 23292, 0, 0, 39285, 0, 38116, 0, 41049, 0, 0, 0, 45494, 0, 14109, 0, 0, 39214, -1, 0, 0, 0, 0, 0, 33604, 0, 0, 10694, 20873, 0, 6050, 0, 30310, 0, 0, 0, 0, 0, 0, 0, 0, 0, 0, 0, 0, 0, 13947, 0, 0, 0, 0, 0, 0, 21811, 0, 0, 0, 0, 0, 0, 0, 0, 0],[40479, 16923, 45019, 0, 0, 39857, 0, 22999, 0, 0, 0, 0, 25544, 0, 0, 0, 0, 0, 19590, 0, 0, 0, 0, 26364, 0, 32654, 20328, 0, 0, 0, 0, 0, 0, -1, 0, 0, 0, 0, 32424, 0, 0, 0, 0, 2574, 0, 0, 0, 0, 0, 0, 0, 0, 21929, 35514, 0, 43751, 0, 0, 0, 40348, 15771, 0, 31419, 0, 32004, 0, 0, 0, 0, 0, 0, 21677, 0, 0, 0, 0, 0],[34096, 0, 0, 40199, 0, 0, 0, 0, 0, 0, 0, 0, 0, 0, 21881, 25953, 27469, 0, 6065, 0, 0, 0, 0, 0, 0, 35520, 0, 34084, 0, 0, 20775, 0, 0, 0, -1, 35770, 0, 28401, 0, 6157, 0, 0, 0, 0, 0, 0, 0, 37587, 0, 0, 0, 0, 0, 44141, 0, 25686, 0, 0, 11867, 43577, 0, 0, 0, 0, 0, 0, 0, 0, 0, 0, 45687, 37994, 0, 0, 0, 0, 0],[35507, 0, 25226, 0, 0, 0, 0, 0, 0, 35509, 0, 0, 0, 0, 0, 0, 0, 40174, 0, 42761, 10029, 45836, 43089, 0, 32048, 0, 41252, 0, 29655, 43485, 0, 12658, 0, 0, 35770, -1, 0, 0, 0, 0, 0, 42924, 0, 0, 0, 0, 34332, 0, 0, 0, 4441, 0, 32834, 0, 0, 0, 0, 0, 29489, 0, 0, 0, 0, 0, 8407, 0, 0, 0, 27296, 42465, 0, 18713, 0, 30286, 0, 14945, 0],[0, 0, 0, 0, 0, 0, 0, 0, 0, 0, 0, 0, 0, 41357, 0, 0, 0, 0, 0, 0, 0, 0, 24065, 0, 0, 28652, 44376, 0, 0, 0, 0, 46057, 0, 0, 0, 0, -1, 0, 0, 44560, 0, 0, 0, 0, 11919, 0, 33451, 0, 0, 0, 0, 42577, 0, 0, 0, 39021, 9832, 0, 0, 0, 20320, 41918, 0, 0, 0, 42330, 0, 24971, 0, 39195, 0, 0, 44673, 0, 0, 0, 0],[0, 0, 0, 0, 0, 0, 0, 0, 0, 40895, 0, 0, 0, 0, 0, 0, 0, 9531, 0, 20338, 44924, 24247, 0, 27190, 0, 0, 38847, 45812, 0, 0, 0, 0, 0, 0, 28401, 0, 0, -1, 0, 0, 32991, 0, 0, 0, 0, 0, 0, 0, 0, 0, 0, 37484, 0, 0, 0, 13140, 0, 0, 0, 0, 23306, 0, 43809, 0, 0, 0, 0, 0, 0, 34250, 0, 30121, 0, 44579, 0, 0, 0],[0, 0, 0, 0, 0, 0, 36775, 0, 18855, 0, 0, 25350, 46241, 0, 0, 0, 26148, 0, 0, 0, 0, 0, 0, 0, 0, 32695, 27200, 0, 0, 0, 0, 0, 33604, 32424, 0, 0, 0, 0, -1, 18230, 0, 0, 0, 0, 0, 0, 0, 36350, 0, 0, 22459, 0, 0, 11284, 0, 0, 0, 0, 0, 0, 0, 0, 0, 0, 16420, 0, 0, 0, 0, 0, 0, 0, 0, 0, 13089, 23027, 0],[0, 42773, 19680, 0, 0, 0, 43919, 0, 0, 0, 0, 0, 0, 0, 0, 43994, 0, 0, 44559, 0, 0, 0, 0, 37496, 2987, 0, 0, 0, 0, 0, 0, 0, 0, 0, 6157, 0, 44560, 0, 18230, -1, 0, 14825, 0, 0, 0, 0, 4157, 0, 1218, 0, 37545, 0, 0, 0, 25128, 0, 0, 0, 0, 0, 0, 0, 16971, 0, 0, 0, 0, 0, 0, 0, 0, 0, 24977, 0, 0, 32300, 19777],[0, 0, 0, 0, 0, 0, 0, 0, 43569, 0, 0, 0, 39274, 0, 0, 0, 0, 0, 0, 0, 31126, 0, 0, 0, 0, 0, 0, 33534, 23251, 0, 32978, 0, 0, 0, 0, 0, 0, 32991, 0, 0, -1, 0, 15720, 43544, 0, 0, 0, 29060, 0, 0, 30114, 45170, 0, 0, 0, 0, 0, 0, 20652, 0, 0, 0, 0, 0, 0, 31212, 0, 33180, 35477, 0, 0, 0, 46130, 0, 0, 0, 0],[43937, 30156, 0, 0, 36524, 0, 0, 0, 0, 21229, 0, 0, 0, 0, 0, 0, 0, 0, 34937, 37321, 0, 0, 0, 0, 0, 0, 0, 0, 0, 0, 0, 28639, 10694, 0, 0, 42924, 0, 0, 0, 14825, 0, -1, 0, 0, 0, 0, 0, 0, 36378, 31217, 0, 36356, 43903, 0, 0, 0, 31393, 30488, 0, 0, 0, 11956, 0, 0, 0, 0, 0, 13391, 15079, 0, 0, 0, 0, 0, 16187, 0, 0],[0, 0, 0, 34428, 0, 0, 15996, 0, 0, 0, 18115, 0, 0, 0, 0, 43862, 0, 0, 0, 37074, 0, 0, 40762, 0, 45682, 0, 0, 0, 0, 0, 0, 0, 20873, 0, 0, 0, 0, 0, 0, 0, 15720, 0, -1, 0, 0, 0, 0, 0, 0, 0, 0, 0, 0, 0, 0, 44071, 5023, 22338, 0, 0, 30166, 0, 0, 0, 31545, 0, 12095, 42215, 0, 0, 0, 0, 0, 0, 45819, 0, 10770],[0, 0, 0, 39929, 19785, 0, 0, 0, 0, 44366, 0, 27513, 0, 0, 0, 22684, 0, 0, 3040, 0, 0, 0, 0, 5106, 0, 29250, 0, 46142, 0, 32448, 24021, 0, 0, 2574, 0, 0, 0, 0, 0, 0, 43544, 0, 0, -1, 0, 0, 37697, 41016, 22846, 0, 31289, 41478, 0, 0, 0, 0, 0, 0, 24909, 0, 0, 0, 32205, 34611, 0, 0, 41312, 0, 0, 0, 27313, 0, 0, 33385, 27940, 0, 0],[0, 0, 0, 0, 0, 0, 45570, 0, 14617, 0, 0, 0, 0, 15052, 0, 0, 0, 0, 0, 0, 0, 0, 0, 0, 0, 0, 0, 30865, 0, 0, 0, 0, 6050, 0, 0, 0, 11919, 0, 0, 0, 0, 0, 0, 0, -1, 24070, 44770, 0, 0, 13643, 0, 0, 25591, 40703, 0, 19839, 36992, 0, 0, 20691, 27939, 23048, 0, 0, 0, 0, 19754, 0, 0, 0, 0, 0, 29895, 0, 0, 0, 0],[0, 0, 0, 0, 0, 42013, 0, 39396, 0, 30119, 0, 3981, 0, 0, 0, 0, 34067, 42112, 22262, 0, 0, 6198, 0, 28044, 0, 0, 0, 0, 0, 0, 22495, 0, 0, 0, 0, 0, 0, 0, 0, 0, 0, 0, 0, 0, 24070, -1, 22108, 0, 31396, 0, 0, 45506, 0, 38857, 0, 0, 21890, 0, 0, 0, 0, 0, 0, 0, 0, 0, 0, 18516, 0, 0, 0, 0, 40309, 26331, 0, 0, 15954],[22284, 38639, 0, 0, 0, 0, 0, 0, 16508, 0, 0, 0, 0, 0, 43842, 0, 0, 0, 36890, 41260, 41375, 0, 0, 43941, 0, 0, 30088, 0, 0, 18007, 5077, 26218, 30310, 0, 0, 34332, 33451, 0, 0, 4157, 0, 0, 0, 37697, 44770, 22108, -1, 0, 0, 0, 0, 0, 0, 36851, 0, 0, 0, 40895, 0, 21022, 44020, 25511, 0, 35171, 0, 15743, 35236, 0, 27847, 0, 0, 0, 0, 0, 43922, 0, 0],[0, 11279, 0, 45345, 0, 0, 0, 0, 0, 0, 0, 0, 0, 0, 0, 0, 0, 0, 0, 0, 30221, 24341, 0, 0, 37302, 0, 0, 0, 0, 0, 22565, 0, 0, 0, 37587, 0, 0, 0, 36350, 0, 29060, 0, 0, 41016, 0, 0, 0, -1, 0, 0, 0, 0, 0, 9762, 41367, 0, 0, 13925, 0, 0, 0, 44061, 33647, 0, 0, 0, 0, 18529, 30720, 36486, 0, 0, 0, 35638, 0, 0, 0],[0, 39806, 45020, 0, 0, 0, 0, 21931, 0, 0, 33470, 40997, 0, 0, 0, 0, 0, 0, 0, 0, 0, 0, 0, 0, 0, 0, 0, 0, 0, 18964, 0, 0, 0, 0, 0, 0, 0, 0, 0, 1218, 0, 36378, 0, 22846, 0, 31396, 0, 0, -1, 0, 0, 42606, 42684, 0, 0, 32632, 0, 32249, 0, 0, 0, 0, 0, 0, 0, 0, 0, 0, 0, 0, 22324, 0, 40962, 0, 19326, 0, 0],[0, 0, 0, 0, 0, 0, 43740, 0, 39426, 0, 23328, 0, 27168, 0, 0, 0, 0, 0, 35543, 0, 0, 37312, 0, 38946, 17605, 0, 0, 0, 0, 0, 0, 18767, 0, 0, 0, 0, 0, 0, 0, 0, 0, 31217, 0, 0, 13643, 0, 0, 0, 0, -1, 0, 11569, 0, 0, 0, 43652, 0, 0, 0, 39521, 0, 0, 0, 0, 0, 0, 0, 0, 0, 0, 0, 0, 0, 0, 32769, 32760, 0],[0, 0, 41965, 0, 0, 0, 12266, 0, 0, 0, 0, 0, 0, 0, 35626, 0, 0, 31448, 0, 23587, 0, 0, 0, 0, 23301, 0, 0, 44064, 0, 0, 0, 0, 0, 0, 0, 4441, 0, 0, 22459, 37545, 30114, 0, 0, 31289, 0, 0, 0, 0, 0, 0, -1, 0, 0, 0, 0, 0, 0, 27756, 0, 0, 40755, 0, 0, 0, 0, 0, 0, 0, 0, 21114, 0, 0, 16476, 0, 0, 0, 44173],[0, 0, 17171, 36603, 30346, 0, 0, 0, 0, 0, 33315, 31684, 0, 0, 0, 37422, 0, 0, 32886, 42169, 0, 42245, 0, 45154, 28091, 44377, 0, 0, 0, 39376, 0, 40853, 0, 0, 0, 0, 42577, 37484, 0, 0, 45170, 36356, 0, 41478, 0, 45506, 0, 0, 42606, 11569, 0, -1, 0, 0, 0, 0, 0, 0, 0, 0, 0, 0, 0, 0, 0, 30740, 0, 45668, 0, 0, 0, 0, 0, 41186, 0, 0, 27204],[0, 29040, 45731, 0, 44434, 0, 0, 0, 0, 0, 34437, 0, 0, 0, 0, 0, 0, 0, 0, 0, 0, 29852, 0, 0, 0, 39585, 46182, 0, 0, 0, 42530, 0, 0, 21929, 0, 32834, 0, 0, 0, 0, 0, 43903, 0, 0, 25591, 0, 0, 0, 42684, 0, 0, 0, -1, 0, 39756, 0, 0, 0, 0, 43895, 0, 22679, 0, 0, 24232, 0, 0, 0, 37036, 26688, 0, 39626, 0, 19724, 0, 35681, 0],[0, 0, 0, 0, 0, 0, 0, 0, 0, 0, 0, 0, 0, 0, 0, 26970, 0, 0, 0, 0, 0, 0, 0, 0, 0, 0, 0, 40012, 0, 0, 0, 0, 0, 35514, 44141, 0, 0, 0, 11284, 0, 0, 0, 0, 0, 40703, 38857, 36851, 9762, 0, 0, 0, 0, 0, -1, 32321, 11508, 37233, 0, 0, 0, 28990, 40758, 0, 0, 0, 40548, 0, 0, 0, 0, 0, 0, 27018, 25917, 0, 0, 0],[0, 0, 0, 34547, 22437, 0, 0, 39262, 0, 0, 0, 0, 0, 0, 0, 0, 14340, 0, 18622, 0, 43419, 0, 0, 25637, 0, 0, 35431, 0, 0, 0, 0, 0, 0, 0, 0, 0, 0, 0, 0, 25128, 0, 0, 0, 0, 0, 0, 0, 41367, 0, 0, 0, 0, 39756, 32321, -1, 42734, 0, 0, 0, 21953, 0, 0, 0, 0, 0, 0, 0, 30709, 0, 0, 0, 40204, 0, 40866, 0, 0, 0],[0, 0, 0, 0, 0, 0, 0, 0, 0, 36012, 0, 0, 29339, 0, 27382, 0, 43886, 0, 0, 0, 0, 0, 0, 0, 0, 0, 0, 0, 0, 0, 40769, 0, 0, 43751, 25686, 0, 39021, 13140, 0, 0, 0, 0, 44071, 0, 19839, 0, 0, 0, 32632, 43652, 0, 0, 0, 11508, 42734, -1, 42034, 0, 8257, 0, 0, 0, 43272, 28789, 0, 0, 40830, 32567, 0, 0, 0, 0, 41381, 0, 0, 0, 0],[0, 0, 0, 0, 0, 0, 0, 20919, 0, 30413, 0, 0, 0, 0, 0, 44603, 38088, 0, 0, 0, 0, 45533, 0, 0, 0, 0, 0, 0, 0, 0, 0, 0, 0, 0, 0, 0, 9832, 0, 0, 0, 0, 31393, 5023, 0, 36992, 21890, 0, 0, 0, 0, 0, 0, 0, 37233, 0, 42034, -1, 0, 37275, 0, 0, 39187, 0, 0, 0, 0, 0, 0, 0, 0, 12316, 0, 0, 0, 0, 0, 0],[0, 21848, 0, 0, 0, 0, 0, 0, 0, 0, 0, 0, 26518, 30225, 0, 0, 6128, 0, 0, 0, 0, 0, 0, 29107, 0, 0, 0, 0, 0, 0, 0, 0, 0, 0, 0, 0, 0, 0, 0, 0, 0, 30488, 22338, 0, 0, 0, 40895, 13925, 32249, 0, 27756, 0, 0, 0, 0, 0, 0, -1, 0, 42217, 0, 26774, 8917, 31554, 0, 0, 0, 0, 0, 34345, 28931, 0, 0, 39517, 21837, 20349, 0],[45050, 0, 0, 25568, 0, 0, 20259, 0, 0, 33335, 0, 0, 0, 34458, 26991, 0, 0, 0, 0, 0, 0, 0, 36540, 0, 0, 0, 0, 39426, 0, 42975, 0, 0, 0, 0, 11867, 29489, 0, 0, 0, 0, 20652, 0, 0, 24909, 0, 0, 0, 0, 0, 0, 0, 0, 0, 0, 0, 8257, 37275, 0, -1, 41415, 29665, 0, 42259, 45143, 0, 0, 0, 0, 0, 40338, 0, 0, 41612, 0, 0, 0, 0],[0, 0, 0, 0, 35663, 0, 0, 0, 0, 0, 38419, 0, 45856, 0, 42982, 0, 37288, 0, 0, 0, 0, 30150, 0, 0, 0, 26446, 0, 0, 38735, 0, 0, 30753, 0, 40348, 43577, 0, 0, 0, 0, 0, 0, 0, 0, 0, 20691, 0, 21022, 0, 0, 39521, 0, 0, 43895, 0, 21953, 0, 0, 42217, 41415, -1, 0, 0, 0, 34642, 0, 42960, 0, 32493, 0, 0, 0, 27019, 0, 0, 0, 36053, 25116],[0, 0, 0, 0, 39333, 0, 15925, 0, 0, 0, 44252, 0, 36345, 39179, 8302, 0, 0, 0, 0, 0, 0, 0, 25548, 0, 0, 31510, 0, 21553, 0, 17468, 0, 40405, 13947, 15771, 0, 0, 20320, 23306, 0, 0, 0, 0, 30166, 0, 27939, 0, 44020, 0, 0, 0, 40755, 0, 0, 28990, 0, 0, 0, 0, 29665, 0, -1, 0, 42924, 0, 0, 41785, 0, 0, 0, 0, 0, 22503, 18964, 0, 0, 0, 0],[0, 36355, 0, 0, 0, 0, 0, 0, 0, 0, 0, 0, 0, 0, 0, 0, 34290, 0, 0, 39222, 0, 43888, 16140, 0, 0, 0, 0, 0, 0, 0, 0, 19885, 0, 0, 0, 0, 41918, 0, 0, 0, 0, 11956, 0, 0, 23048, 0, 25511, 44061, 0, 0, 0, 0, 22679, 40758, 0, 0, 39187, 26774, 0, 0, 0, -1, 0, 43170, 32916, 0, 0, 0, 0, 41911, 0, 0, 0, 0, 0, 38467, 0],[28642, 0, 0, 36667, 0, 0, 25045, 0, 0, 27424, 0, 45789, 23300, 0, 0, 15633, 0, 0, 0, 0, 0, 32979, 46197, 36694, 0, 0, 0, 0, 0, 0, 0, 0, 0, 31419, 0, 0, 0, 43809, 0, 16971, 0, 0, 0, 32205, 0, 0, 0, 33647, 0, 0, 0, 0, 0, 0, 0, 43272, 0, 8917, 42259, 0, 42924, 0, -1, 0, 0, 0, 0, 0, 0, 34753, 0, 0, 0, 0, 25794, 0, 0],[0, 0, 0, 0, 0, 0, 0, 0, 0, 0, 0, 0, 0, 0, 0, 0, 0, 0, 0, 0, 38046, 0, 0, 35715, 0, 0, 0, 0, 0, 0, 0, 36317, 0, 0, 0, 0, 0, 0, 0, 0, 0, 0, 0, 34611, 0, 0, 35171, 0, 0, 0, 0, 0, 0, 0, 0, 28789, 0, 31554, 45143, 34642, 0, 43170, 0, -1, 0, 0, 0, 5658, 0, 0, 44195, 0, 0, 0, 0, 42329, 29184],[0, 0, 0, 0, 0, 0, 0, 0, 35630, 0, 36012, 0, 43202, 0, 0, 22246, 0, 0, 0, 0, 0, 0, 37700, 0, 25711, 0, 0, 0, 0, 0, 30997, 25220, 0, 32004, 0, 8407, 0, 0, 16420, 0, 0, 0, 31545, 0, 0, 0, 0, 0, 0, 0, 0, 0, 24232, 0, 0, 0, 0, 0, 0, 0, 0, 32916, 0, 0, -1, 26198, 0, 35048, 0, 0, 0, 0, 0, 0, 0, 25097, 0],[0, 0, 0, 46181, 0, 0, 35815, 32021, 0, 0, 0, 0, 0, 0, 0, 23998, 0, 9576, 0, 34227, 26826, 0, 0, 0, 0, 0, 0, 0, 0, 0, 0, 0, 0, 0, 0, 0, 42330, 0, 0, 0, 31212, 0, 0, 0, 0, 0, 15743, 0, 0, 0, 0, 30740, 0, 40548, 0, 0, 0, 0, 0, 42960, 41785, 0, 0, 0, 26198, -1, 44392, 46294, 0, 0, 0, 0, 0, 0, 8441, 0, 0],[0, 0, 27049, 0, 0, 23065, 0, 0, 44910, 0, 0, 0, 4154, 0, 0, 0, 8951, 0, 0, 0, 0, 0, 18289, 0, 44323, 0, 0, 0, 0, 0, 0, 0, 0, 0, 0, 0, 0, 0, 0, 0, 0, 0, 12095, 41312, 19754, 0, 35236, 0, 0, 0, 0, 0, 0, 0, 0, 40830, 0, 0, 0, 0, 0, 0, 0, 0, 0, 44392, -1, 0, 0, 0, 13444, 40432, 0, 25001, 0, 0, 0],[0, 0, 0, 0, 0, 0, 29490, 0, 0, 0, 0, 43126, 0, 0, 0, 0, 0, 21469, 0, 46011, 0, 0, 0, 0, 40483, 0, 0, 37195, 0, 0, 36397, 0, 21811, 0, 0, 0, 24971, 0, 0, 0, 33180, 13391, 42215, 0, 0, 18516, 0, 18529, 0, 0, 0, 45668, 0, 0, 30709, 32567, 0, 0, 0, 32493, 0, 0, 0, 5658, 35048, 46294, 0, -1, 0, 0, 0, 24847, 0, 0, 43940, 0, 31582],[0, 36201, 0, 0, 0, 31620, 0, 0, 0, 0, 0, 0, 0, 30648, 42737, 0, 0, 32929, 0, 0, 0, 0, 35923, 0, 0, 0, 0, 0, 0, 0, 0, 0, 0, 0, 0, 27296, 0, 0, 0, 0, 35477, 15079, 0, 0, 0, 0, 27847, 30720, 0, 0, 0, 0, 37036, 0, 0, 0, 0, 0, 0, 0, 0, 0, 0, 0, 0, 0, 0, 0, -1, 0, 0, 0, 36385, 0, 0, 0, 0],[0, 0, 0, 0, 0, 0, 0, 0, 0, 0, 0, 0, 0, 25505, 0, 0, 0, 39395, 0, 23436, 0, 0, 0, 32464, 0, 0, 0, 0, 0, 0, 44166, 0, 0, 0, 0, 42465, 39195, 34250, 0, 0, 0, 0, 0, 0, 0, 0, 0, 36486, 0, 0, 21114, 0, 26688, 0, 0, 0, 0, 34345, 40338, 0, 0, 41911, 34753, 0, 0, 0, 0, 0, 0, -1, 0, 0, 8245, 0, 0, 0, 35452],[0, 0, 0, 36603, 0, 39734, 0, 43585, 0, 0, 0, 38384, 34501, 0, 0, 0, 30897, 0, 0, 37531, 20045, 0, 0, 40088, 0, 0, 0, 0, 0, 0, 0, 0, 0, 0, 45687, 0, 0, 0, 0, 0, 0, 0, 0, 27313, 0, 0, 0, 0, 22324, 0, 0, 0, 0, 0, 0, 0, 12316, 28931, 0, 0, 0, 0, 0, 44195, 0, 0, 13444, 0, 0, 0, -1, 0, 0, 0, 0, 0, 0],[0, 0, 29666, 0, 0, 32699, 0, 0, 0, 37959, 35503, 0, 0, 0, 44604, 0, 0, 0, 0, 0, 27600, 29516, 0, 35564, 0, 42050, 38094, 45665, 0, 0, 0, 0, 0, 21677, 37994, 18713, 0, 30121, 0, 0, 0, 0, 0, 0, 0, 0, 0, 0, 0, 0, 0, 0, 39626, 0, 40204, 0, 0, 0, 0, 27019, 22503, 0, 0, 0, 0, 0, 40432, 24847, 0, 0, 0, -1, 0, 0, 0, 0, 0],[14613, 0, 0, 0, 0, 41164, 0, 0, 16792, 0, 0, 0, 0, 0, 0, 39977, 0, 0, 0, 0, 0, 0, 0, 0, 10693, 34094, 0, 0, 0, 0, 14172, 20650, 0, 0, 0, 0, 44673, 0, 0, 24977, 46130, 0, 0, 0, 29895, 40309, 0, 0, 40962, 0, 16476, 0, 0, 27018, 0, 41381, 0, 0, 41612, 0, 18964, 0, 0, 0, 0, 0, 0, 0, 36385, 8245, 0, 0, -1, 0, 26554, 0, 0],[0, 0, 0, 0, 0, 0, 0, 34456, 0, 30617, 0, 0, 0, 0, 0, 0, 0, 0, 38113, 0, 0, 0, 23665, 39856, 0, 0, 0, 21040, 33837, 0, 0, 0, 0, 0, 0, 30286, 0, 44579, 0, 0, 0, 0, 0, 33385, 0, 26331, 0, 35638, 0, 0, 0, 41186, 19724, 25917, 40866, 0, 0, 39517, 0, 0, 0, 0, 0, 0, 0, 0, 25001, 0, 0, 0, 0, 0, 0, -1, 27545, 31632, 0],[0, 18394, 0, 0, 0, 42169, 0, 0, 0, 0, 0, 0, 0, 0, 0, 0, 0, 0, 0, 0, 11271, 0, 0, 0, 0, 0, 37303, 22838, 0, 0, 0, 0, 0, 0, 0, 0, 0, 0, 13089, 0, 0, 16187, 45819, 27940, 0, 0, 43922, 0, 19326, 32769, 0, 0, 0, 0, 0, 0, 0, 21837, 0, 0, 0, 0, 25794, 0, 0, 8441, 0, 43940, 0, 0, 0, 0, 26554, 27545, -1, 19274, 0],[32332, 0, 0, 0, 0, 0, 0, 30142, 0, 23624, 0, 29206, 10248, 0, 0, 0, 14547, 0, 0, 0, 0, 0, 0, 0, 0, 0, 16156, 17931, 38770, 0, 0, 0, 0, 0, 0, 14945, 0, 0, 23027, 32300, 0, 0, 0, 0, 0, 0, 0, 0, 0, 32760, 0, 0, 35681, 0, 0, 0, 0, 20349, 0, 36053, 0, 38467, 0, 42329, 25097, 0, 0, 0, 0, 0, 0, 0, 0, 31632, 19274, -1, 7003],[0, 0, 37473, 0, 38389, 0, 0, 36068, 0, 0, 0, 0, 0, 0, 0, 0, 0, 0, 41965, 0, 0, 0, 0, 0, 31248, 23781, 0, 0, 38811, 0, 12112, 0, 0, 0, 0, 0, 0, 0, 0, 19777, 0, 0, 10770, 0, 0, 15954, 0, 0, 0, 0, 44173, 27204, 0, 0, 0, 0, 0, 0, 0, 25116, 0, 0, 0, 29184, 0, 0, 0, 31582, 0, 35452, 0, 0, 0, 0, 0, 7003, -1]]